n=40;
demand=2;
horizon=40;
est=[23,1,11,36,39,33,22,9,32,10,24,19,22,33,8,13,11,36,0,0,0,38,15,13,9,35,34,20,25,21,20,6,23,12,19,35,0,21,36,19];
processing_time=[14,12,25,1,1,6,17,24,7,20,15,19,10,1,12,23,7,4,6,15,21,2,10,23,30,2,3,20,13,11,12,19,9,2,1,4,10,11,2,16];
lct=[37,26,39,39,40,40,40,37,40,31,39,38,38,40,31,36,37,40,34,23,37,40,36,36,40,38,40,40,39,32,36,32,39,20,30,40,31,39,39,40];
